* #variable= 90 #constraint= 480 #equal= 0 intsize= 12 #product= 1133 sizeproduct= 2266
min: +2 x11 -5 x22 +5 x33 +5 x44 -6 x55 -12 x66 +2 x77 -4 x88 +4 x1 +1 x2 -6 x3 -7 x4 +5 x5 -2 x6 -1 x7 -7 x8 +6 x9 -5 x10 +1 x12 +2 x13 -4 x14 +5 x15 -3 x16 -13 x17 -3 x18 +1 x19 -8 x20 -2 x21 -7 x23 +6 x24 +9 x25 +2 x26 +13 x27 +2 x28 +1 x29 -5 x30 +2 x31 -3 x32 -10 x34 -1 x35 -4 x36 +9 x37 +3 x38 -7 x39 +14 x40 -3 x41 +16 x42 +12 x43 -13 x45 +18 x46 -3 x47 +9 x48 -9 x49 +8 x50 -6 x51 +9 x52 -10 x53 +16 x54 -2 x56 +5 x57 -18 x58 -9 x59 +1 x60 -7 x61 -4 x62 -8 x63 +1 x64 -14 x65 +11 x67 -1 x68 +2 x69 +10 x70 -8 x71 -10 x72 -6 x73 -10 x74 -17 x75 +1 x76 -1 x78 +9 x79 -6 x80 -2 x81 +5 x82 -7 x83 +10 x84 -7 x85 -15 x86 -2 x11 x41 +2 x11 x45 -2 x11 x53 -2 x11 x56 +2 x11 x58 +2 x11 x59 +2 x11 x60 +2 x11 x61 +2 x11 x62 +2 x11 x65 -2 x11 x67 -2 x11 x68 -2 x11 x69 -2 x11 x70 -2 x11 x74 +2 x11 x75 -2 x11 x78 -2 x11 x79 +2 x11 x80 -2 x11 x81 -2 x11 x82 +2 x11 x83 +2 x11 x85 +2 x11 x86 -2 x11 x87 -2 x11 x89 -2 x22 x41 +2 x22 x49 +2 x22 x51 -2 x22 x53 -2 x22 x56 +2 x22 x58 +2 x22 x59 +2 x22 x60 +2 x22 x61 +2 x22 x62 +2 x22 x65 +2 x22 x68 +2 x22 x69 -2 x22 x70 +2 x22 x71 +2 x22 x72 +2 x22 x73 -2 x22 x74 +2 x22 x75 -2 x22 x78 -2 x22 x79 -2 x22 x81 -2 x22 x82 +2 x22 x85 +2 x22 x86 -2 x22 x87 -2 x22 x89 +2 x33 x45 -2 x33 x49 -2 x33 x51 +2 x33 x59 -2 x33 x61 -2 x33 x62 -2 x33 x67 -2 x33 x68 -2 x33 x69 -2 x33 x70 -2 x33 x72 -2 x33 x73 +2 x33 x78 +2 x33 x79 +2 x33 x81 +2 x33 x82 -2 x33 x87 -2 x40 x44 -2 x42 x44 +2 x44 x45 -2 x44 x46 -2 x44 x48 -2 x44 x49 -2 x44 x50 -2 x44 x51 -2 x44 x52 -2 x44 x54 +2 x44 x58 +2 x44 x59 -2 x44 x61 -2 x44 x62 +2 x44 x65 -2 x44 x67 -2 x44 x68 -2 x44 x69 -2 x44 x70 -2 x44 x72 -2 x44 x73 +2 x44 x75 +2 x44 x78 +2 x44 x79 +2 x44 x80 +2 x44 x81 +2 x44 x82 +2 x44 x83 +2 x44 x85 +2 x44 x86 -2 x44 x87 +2 x41 x55 +2 x45 x55 +2 x47 x55 +2 x49 x55 +2 x51 x55 +2 x55 x56 +2 x55 x58 +2 x55 x59 -2 x55 x63 +2 x55 x65 -2 x55 x67 -2 x55 x68 -2 x55 x69 -2 x55 x70 -2 x55 x74 +2 x55 x75 -2 x55 x78 +2 x55 x80 -2 x55 x81 +2 x55 x83 +2 x55 x84 +2 x55 x85 +2 x55 x86 -2 x55 x87 +2 x41 x66 +2 x45 x66 +2 x47 x66 +2 x49 x66 +2 x51 x66 +2 x56 x66 +2 x58 x66 +2 x61 x66 +2 x62 x66 -2 x63 x66 +2 x65 x66 +2 x66 x68 +2 x66 x69 +2 x66 x71 +2 x66 x72 +2 x66 x73 -2 x66 x74 +2 x66 x75 -2 x66 x78 -2 x66 x79 -2 x66 x81 -2 x66 x82 +2 x66 x84 +2 x66 x85 +2 x66 x86 -2 x66 x87 -2 x40 x77 -2 x42 x77 +2 x45 x77 -2 x46 x77 +2 x47 x77 -2 x48 x77 +2 x49 x77 -2 x50 x77 -2 x52 x77 +2 x53 x77 -2 x54 x77 +2 x56 x77 +2 x59 x77 +2 x60 x77 +2 x61 x77 +2 x63 x77 +2 x64 x77 -2 x67 x77 -2 x68 x77 -2 x69 x77 -2 x70 x77 -2 x73 x77 -2 x76 x77 +2 x77 x81 +2 x77 x82 -2 x77 x87 -2 x40 x88 -2 x42 x88 -2 x43 x88 +2 x45 x88 -2 x46 x88 +2 x47 x88 +2 x49 x88 -2 x52 x88 +2 x53 x88 -2 x54 x88 +2 x56 x88 +2 x59 x88 +2 x60 x88 +2 x61 x88 +2 x63 x88 +2 x64 x88 +2 x68 x88 +2 x72 x88 -2 x78 x88 -2 x79 x88 -2 x1 x40 -2 x1 x42 -2 x1 x46 -2 x1 x47 -2 x1 x48 -2 x1 x50 -2 x1 x52 -2 x1 x54 -2 x1 x56 +2 x1 x58 -2 x1 x60 -2 x1 x64 +2 x1 x65 +2 x1 x72 +2 x1 x73 +2 x1 x74 +2 x1 x75 -2 x1 x79 +2 x1 x80 -2 x1 x82 +2 x1 x83 -2 x1 x84 +2 x1 x85 +2 x1 x86 -2 x2 x40 -2 x2 x42 -2 x2 x43 -2 x2 x45 -2 x2 x46 -2 x2 x47 +2 x2 x49 +2 x2 x51 -2 x2 x52 -2 x2 x54 -2 x2 x56 +2 x2 x58 -2 x2 x59 -2 x2 x60 +2 x2 x61 +2 x2 x62 -2 x2 x64 +2 x2 x65 +2 x2 x68 +2 x2 x69 +2 x2 x71 +2 x2 x72 +2 x2 x73 +2 x2 x74 +2 x2 x75 -2 x2 x78 -2 x2 x79 -2 x2 x81 -2 x2 x82 -2 x2 x84 +2 x2 x85 +2 x2 x86 +2 x2 x87 +2 x3 x45 -2 x3 x47 -2 x3 x49 +2 x3 x58 +2 x3 x59 -2 x3 x60 -2 x3 x61 +2 x3 x65 -2 x3 x67 -2 x3 x68 -2 x3 x69 -2 x3 x70 +2 x3 x73 +2 x3 x74 +2 x3 x75 +2 x3 x76 +2 x3 x78 +2 x3 x79 +2 x3 x80 +2 x3 x83 +2 x3 x85 +2 x3 x86 -2 x3 x87 +2 x3 x89 -2 x4 x47 +2 x4 x51 +2 x4 x58 -2 x4 x60 +2 x4 x62 +2 x4 x65 -2 x4 x67 +2 x4 x69 +2 x4 x71 +2 x4 x73 +2 x4 x74 +2 x4 x75 -2 x4 x81 -2 x4 x82 +2 x4 x85 +2 x4 x86 +2 x4 x89 -2 x5 x40 -2 x5 x42 +2 x5 x45 -2 x5 x46 -2 x5 x48 -2 x5 x50 -2 x5 x51 -2 x5 x52 -2 x5 x54 +2 x5 x58 +2 x5 x59 -2 x5 x62 +2 x5 x65 -2 x5 x67 -2 x5 x68 -2 x5 x69 -2 x5 x70 -2 x5 x73 +2 x5 x75 -2 x5 x76 +2 x5 x80 +2 x5 x81 +2 x5 x82 +2 x5 x83 +2 x5 x85 +2 x5 x86 -2 x5 x87 -2 x6 x40 -2 x6 x42 -2 x6 x43 -2 x6 x46 +2 x6 x49 -2 x6 x52 -2 x6 x54 +2 x6 x58 +2 x6 x61 +2 x6 x65 +2 x6 x68 +2 x6 x71 +2 x6 x72 +2 x6 x75 -2 x6 x78 -2 x6 x79 +2 x6 x85 +2 x6 x86 -2 x7 x40 -2 x7 x42 +2 x7 x45 -2 x7 x46 +2 x7 x47 -2 x7 x48 +2 x7 x49 -2 x7 x50 +2 x7 x51 -2 x7 x52 +2 x7 x53 -2 x7 x54 +2 x7 x58 +2 x7 x59 +2 x7 x60 +2 x7 x61 +2 x7 x62 +2 x7 x63 +2 x7 x65 -2 x7 x67 -2 x7 x68 -2 x7 x69 -2 x7 x70 +2 x7 x75 -2 x7 x79 +2 x7 x80 -2 x7 x82 +2 x7 x83 -2 x7 x84 +2 x7 x85 +2 x7 x86 -2 x7 x87 -2 x7 x89 -2 x8 x40 -2 x8 x42 -2 x8 x43 +2 x8 x45 -2 x8 x46 +2 x8 x47 +2 x8 x49 +2 x8 x51 -2 x8 x52 +2 x8 x53 -2 x8 x54 +2 x8 x58 +2 x8 x59 +2 x8 x60 +2 x8 x61 +2 x8 x62 +2 x8 x63 +2 x8 x65 +2 x8 x68 +2 x8 x69 -2 x8 x70 +2 x8 x71 +2 x8 x72 +2 x8 x73 +2 x8 x75 -2 x8 x78 -2 x8 x79 -2 x8 x81 -2 x8 x82 -2 x8 x84 +2 x8 x85 +2 x8 x86 -2 x8 x89 +2 x9 x41 -2 x9 x42 -2 x9 x43 -2 x9 x46 -2 x9 x48 -2 x9 x49 -2 x9 x50 -2 x9 x51 +2 x9 x53 +2 x9 x56 -2 x9 x57 -2 x9 x59 -2 x9 x60 -2 x9 x61 -2 x9 x62 -2 x9 x65 -2 x9 x68 -2 x9 x69 +2 x9 x70 -2 x9 x72 -2 x9 x73 +2 x9 x74 +2 x9 x78 +2 x9 x79 +2 x9 x80 +2 x9 x81 +2 x9 x82 +2 x9 x83 -2 x9 x85 -2 x9 x86 +2 x9 x87 +2 x9 x89 +2 x10 x41 +2 x10 x45 +2 x10 x47 +2 x10 x49 +2 x10 x51 +2 x10 x56 +2 x10 x58 -2 x10 x59 -2 x10 x60 -2 x10 x61 -2 x10 x62 -2 x10 x65 +2 x10 x70 +2 x10 x79 +2 x10 x82 -2 x10 x86 +2 x10 x89 -2 x12 x42 -2 x12 x43 +2 x12 x45 -2 x12 x46 +2 x12 x47 -2 x12 x48 +2 x12 x49 -2 x12 x50 +2 x12 x53 +2 x12 x56 -2 x12 x57 -2 x12 x69 +2 x12 x70 -2 x12 x71 -2 x12 x73 +2 x12 x74 -2 x12 x75 -2 x12 x76 +2 x12 x78 +2 x12 x79 -2 x12 x80 +2 x12 x81 +2 x12 x82 -2 x12 x85 -2 x12 x86 +2 x12 x87 +2 x12 x89 +2 x13 x41 -2 x13 x42 -2 x13 x43 -2 x13 x45 -2 x13 x46 -2 x13 x47 -2 x13 x48 -2 x13 x50 +2 x13 x53 -2 x13 x57 -2 x13 x59 -2 x13 x60 -2 x13 x61 -2 x13 x62 -2 x13 x65 +2 x13 x68 +2 x13 x69 +2 x13 x71 +2 x13 x72 +2 x13 x73 +2 x13 x74 +2 x13 x75 +2 x13 x78 +2 x13 x81 -2 x13 x85 +2 x13 x87 +2 x14 x41 -2 x14 x47 -2 x14 x49 +2 x14 x53 +2 x14 x56 -2 x14 x59 -2 x14 x60 -2 x14 x61 -2 x14 x62 -2 x14 x65 -2 x14 x67 -2 x14 x68 +2 x14 x70 +2 x14 x73 +2 x14 x74 +2 x14 x75 +2 x14 x76 +2 x14 x78 +2 x14 x79 +2 x14 x80 +2 x14 x81 +2 x14 x82 -2 x14 x85 -2 x14 x86 +2 x14 x87 +2 x14 x89 +2 x15 x41 -2 x15 x42 -2 x15 x43 -2 x15 x46 -2 x15 x48 -2 x15 x50 -2 x15 x51 +2 x15 x53 +2 x15 x56 -2 x15 x57 -2 x15 x59 -2 x15 x60 -2 x15 x61 -2 x15 x62 -2 x15 x65 -2 x15 x69 +2 x15 x70 -2 x15 x73 +2 x15 x74 -2 x15 x76 +2 x15 x78 +2 x15 x79 +2 x15 x81 +2 x15 x82 +2 x15 x83 -2 x15 x85 -2 x15 x86 +2 x15 x87 +2 x15 x89 -2 x16 x42 -2 x16 x43 +2 x16 x45 -2 x16 x46 +2 x16 x47 -2 x16 x48 +2 x16 x49 -2 x16 x50 +2 x16 x51 +2 x16 x53 -2 x16 x57 +2 x16 x58 +2 x16 x74 +2 x16 x78 +2 x16 x81 -2 x16 x85 +2 x16 x87 +2 x17 x40 +2 x17 x41 +2 x17 x43 +2 x17 x45 +2 x17 x46 +2 x17 x47 +2 x17 x48 +2 x17 x49 +2 x17 x50 +2 x17 x51 +2 x17 x54 +2 x17 x56 +2 x17 x57 +2 x17 x58 +2 x17 x61 +2 x17 x62 -2 x17 x63 +2 x17 x68 +2 x17 x69 +2 x17 x72 +2 x17 x73 -2 x17 x74 -2 x17 x78 -2 x17 x79 -2 x17 x80 -2 x17 x81 -2 x17 x82 -2 x17 x83 +2 x17 x84 +2 x17 x85 -2 x17 x87 -2 x18 x40 -2 x18 x42 +2 x18 x45 +2 x18 x47 +2 x18 x48 +2 x18 x49 +2 x18 x53 +2 x18 x56 -2 x18 x57 +2 x18 x59 +2 x18 x60 +2 x18 x61 +2 x18 x63 +2 x18 x64 +2 x18 x68 -2 x18 x71 +2 x18 x72 -2 x18 x75 -2 x18 x78 -2 x18 x79 -2 x18 x80 -2 x18 x85 -2 x18 x86 -2 x19 x43 -2 x19 x45 -2 x19 x46 -2 x19 x47 +2 x19 x48 +2 x19 x49 +2 x19 x50 +2 x19 x51 -2 x19 x54 -2 x19 x56 -2 x19 x59 -2 x19 x60 +2 x19 x61 +2 x19 x62 -2 x19 x64 +2 x19 x68 +2 x19 x69 +2 x19 x71 +2 x19 x72 +2 x19 x73 +2 x19 x74 +2 x19 x75 -2 x19 x78 -2 x19 x79 -2 x19 x80 -2 x19 x81 -2 x19 x82 -2 x19 x83 -2 x19 x84 +2 x19 x86 +2 x19 x87 +2 x20 x40 +2 x20 x42 +2 x20 x43 -2 x20 x47 +2 x20 x50 +2 x20 x51 +2 x20 x52 +2 x20 x54 +2 x20 x57 -2 x20 x60 +2 x20 x62 -2 x20 x67 +2 x20 x69 +2 x20 x73 +2 x20 x74 +2 x20 x75 -2 x20 x81 -2 x20 x82 -2 x20 x83 +2 x20 x89 +2 x21 x48 +2 x21 x49 +2 x21 x61 +2 x21 x68 +2 x21 x72 -2 x21 x78 -2 x21 x79 -2 x21 x80 -2 x23 x40 -2 x23 x42 +2 x23 x45 +2 x23 x47 +2 x23 x48 +2 x23 x49 +2 x23 x50 +2 x23 x51 +2 x23 x53 -2 x23 x54 +2 x23 x58 +2 x23 x59 +2 x23 x60 +2 x23 x61 +2 x23 x62 +2 x23 x63 +2 x23 x65 +2 x23 x68 +2 x23 x69 -2 x23 x70 +2 x23 x72 +2 x23 x73 -2 x23 x78 -2 x23 x79 -2 x23 x80 -2 x23 x81 -2 x23 x82 -2 x23 x83 -2 x23 x84 +2 x23 x86 -2 x23 x89 -2 x24 x40 -2 x24 x43 -2 x24 x46 -2 x24 x48 -2 x24 x50 -2 x24 x54 -2 x24 x57 +2 x24 x59 +2 x24 x60 +2 x24 x61 +2 x24 x63 +2 x24 x64 -2 x24 x69 -2 x24 x71 -2 x24 x73 +2 x24 x74 -2 x24 x75 -2 x24 x76 +2 x24 x78 -2 x24 x80 +2 x24 x81 +2 x24 x82 -2 x24 x84 -2 x24 x85 -2 x24 x86 +2 x24 x87 -2 x25 x40 -2 x25 x41 -2 x25 x43 -2 x25 x45 -2 x25 x46 -2 x25 x47 -2 x25 x48 -2 x25 x49 -2 x25 x50 -2 x25 x51 -2 x25 x54 -2 x25 x56 -2 x25 x57 -2 x25 x58 -2 x25 x59 -2 x25 x60 +2 x25 x63 -2 x25 x64 +2 x25 x68 +2 x25 x69 +2 x25 x71 +2 x25 x72 +2 x25 x73 +2 x25 x74 +2 x25 x75 +2 x25 x78 -2 x25 x79 +2 x25 x81 -2 x25 x82 -2 x25 x84 -2 x25 x85 +2 x25 x86 +2 x25 x87 -2 x26 x41 -2 x26 x45 -2 x26 x47 -2 x26 x49 -2 x26 x51 -2 x26 x56 -2 x26 x58 -2 x26 x60 -2 x26 x61 +2 x26 x63 -2 x26 x67 -2 x26 x68 +2 x26 x73 +2 x26 x74 +2 x26 x75 +2 x26 x76 +2 x26 x78 +2 x26 x79 +2 x26 x80 +2 x26 x81 -2 x26 x84 -2 x26 x85 +2 x26 x87 +2 x26 x89 -2 x27 x40 -2 x27 x41 -2 x27 x43 -2 x27 x45 -2 x27 x46 -2 x27 x47 -2 x27 x48 -2 x27 x49 -2 x27 x50 -2 x27 x51 -2 x27 x54 -2 x27 x56 -2 x27 x57 -2 x27 x58 -2 x27 x62 +2 x27 x63 -2 x27 x69 -2 x27 x73 +2 x27 x74 -2 x27 x76 +2 x27 x78 +2 x27 x81 +2 x27 x82 +2 x27 x83 -2 x27 x84 -2 x27 x85 +2 x27 x87 -2 x28 x40 -2 x28 x43 -2 x28 x46 -2 x28 x48 -2 x28 x50 -2 x28 x54 -2 x28 x57 +2 x28 x59 +2 x28 x60 +2 x28 x61 +2 x28 x62 +2 x28 x63 +2 x28 x65 -2 x28 x70 +2 x28 x74 +2 x28 x78 -2 x28 x79 +2 x28 x81 -2 x28 x82 -2 x28 x84 -2 x28 x85 +2 x28 x86 +2 x28 x87 -2 x28 x89 +2 x29 x40 +2 x29 x42 -2 x29 x43 -2 x29 x45 -2 x29 x46 -2 x29 x47 -2 x29 x49 +2 x29 x50 -2 x29 x53 -2 x29 x54 -2 x29 x56 +2 x29 x57 -2 x29 x59 -2 x29 x60 -2 x29 x61 -2 x29 x63 -2 x29 x64 +2 x29 x68 +2 x29 x69 +2 x29 x71 +2 x29 x72 +2 x29 x73 +2 x29 x74 +2 x29 x75 +2 x29 x76 -2 x29 x79 +2 x29 x80 -2 x29 x81 -2 x29 x82 -2 x29 x84 +2 x29 x85 +2 x29 x86 +2 x29 x87 +2 x30 x40 +2 x30 x42 +2 x30 x43 -2 x30 x45 -2 x30 x47 -2 x30 x49 +2 x30 x50 +2 x30 x52 -2 x30 x53 +2 x30 x54 -2 x30 x56 +2 x30 x57 -2 x30 x59 -2 x30 x60 -2 x30 x61 -2 x30 x63 -2 x30 x64 -2 x30 x67 -2 x30 x68 +2 x30 x69 +2 x30 x71 +2 x30 x73 +2 x30 x74 +2 x30 x75 +2 x30 x76 +2 x30 x78 +2 x30 x79 +2 x30 x80 -2 x30 x81 -2 x30 x82 +2 x30 x85 +2 x30 x86 +2 x30 x89 +2 x31 x40 +2 x31 x42 -2 x31 x45 -2 x31 x47 -2 x31 x49 -2 x31 x53 -2 x31 x56 +2 x31 x57 -2 x31 x59 -2 x31 x60 -2 x31 x61 -2 x31 x63 -2 x31 x64 +2 x31 x71 +2 x31 x75 +2 x31 x80 +2 x31 x85 +2 x31 x86 +2 x32 x50 -2 x32 x54 +2 x32 x57 +2 x32 x69 -2 x32 x70 +2 x32 x71 +2 x32 x73 +2 x32 x75 +2 x32 x76 -2 x32 x79 +2 x32 x80 -2 x32 x81 -2 x32 x82 -2 x32 x84 +2 x32 x85 +2 x32 x86 -2 x32 x89 +2 x34 x40 +2 x34 x42 +2 x34 x43 +2 x34 x45 -2 x34 x49 +2 x34 x50 +2 x34 x52 +2 x34 x54 +2 x34 x56 +2 x34 x57 +2 x34 x59 -2 x34 x61 +2 x34 x64 -2 x34 x68 -2 x34 x69 -2 x34 x71 +2 x34 x76 +2 x34 x78 +2 x34 x79 +2 x34 x80 +2 x34 x82 +2 x34 x84 -2 x34 x86 -2 x34 x87 +2 x35 x43 +2 x35 x45 +2 x35 x46 +2 x35 x47 -2 x35 x50 -2 x35 x51 +2 x35 x54 +2 x35 x56 +2 x35 x59 +2 x35 x60 -2 x35 x62 +2 x35 x64 -2 x35 x68 -2 x35 x69 -2 x35 x71 -2 x35 x72 -2 x35 x73 -2 x35 x74 -2 x35 x75 -2 x35 x76 +2 x35 x79 +2 x35 x81 +2 x35 x82 +2 x35 x83 +2 x35 x84 -2 x35 x86 -2 x35 x87 -2 x36 x40 -2 x36 x42 +2 x36 x43 +2 x36 x45 +2 x36 x46 +2 x36 x47 +2 x36 x49 +2 x36 x51 +2 x36 x53 +2 x36 x58 +2 x36 x59 +2 x36 x60 +2 x36 x61 +2 x36 x62 +2 x36 x63 +2 x36 x65 -2 x36 x68 -2 x36 x69 -2 x36 x71 -2 x36 x72 -2 x36 x73 -2 x36 x74 -2 x36 x75 -2 x36 x87 -2 x37 x40 -2 x37 x42 -2 x37 x43 +2 x37 x47 +2 x37 x49 -2 x37 x50 -2 x37 x51 -2 x37 x52 -2 x37 x54 -2 x37 x57 +2 x37 x60 +2 x37 x61 -2 x37 x62 +2 x37 x67 +2 x37 x68 -2 x37 x69 -2 x37 x73 -2 x37 x74 -2 x37 x75 -2 x37 x76 -2 x37 x78 -2 x37 x79 -2 x37 x80 +2 x37 x81 +2 x37 x82 +2 x37 x83 -2 x37 x89 -2 x38 x40 -2 x38 x42 -2 x38 x43 +2 x38 x45 +2 x38 x47 +2 x38 x49 -2 x38 x50 +2 x38 x51 -2 x38 x52 +2 x38 x53 -2 x38 x54 -2 x38 x57 +2 x38 x58 +2 x38 x59 +2 x38 x60 +2 x38 x61 +2 x38 x62 +2 x38 x63 +2 x38 x65 +2 x38 x67 +2 x38 x68 -2 x38 x70 -2 x38 x73 -2 x38 x74 -2 x38 x75 -2 x38 x76 -2 x38 x78 -2 x38 x79 -2 x38 x80 -2 x38 x82 -2 x38 x84 +2 x38 x86 -2 x38 x89 -2 x39 x40 -2 x39 x42 +2 x39 x45 +2 x39 x47 +2 x39 x49 +2 x39 x50 +2 x39 x51 +2 x39 x53 -2 x39 x54 +2 x39 x58 +2 x39 x59 +2 x39 x60 +2 x39 x61 +2 x39 x62 +2 x39 x63 +2 x39 x65 +2 x39 x69 -2 x39 x70 +2 x39 x73 +2 x39 x76 -2 x39 x79 -2 x39 x81 -2 x39 x82 -2 x39 x83 -2 x39 x84 +2 x39 x86 -2 x39 x89 -2 x40 x90 -2 x42 x90 -2 x43 x90 -2 x46 x90 -2 x52 x90 -2 x54 x90 +2 x58 x90 +2 x65 x90 +2 x71 x90 +2 x75 x90 +2 x85 x90 +2 x86 x90 ;
+1 x11 -1 x22 -1 x33 >= -1;
-1 x33 +1 x44 -1 x90 >= -1;
-1 x33 +1 x55 -1 x66 >= -1;
-1 x33 +1 x77 -1 x88 >= -1;
-1 x33 +1 x1 -1 x2 >= -1;
-1 x33 +1 x3 -1 x4 >= -1;
-1 x33 +1 x5 -1 x6 >= -1;
-1 x33 +1 x7 -1 x8 >= -1;
-1 x11 +1 x44 -1 x9 >= -1;
-1 x11 +1 x55 -1 x10 >= -1;
-1 x11 +1 x77 -1 x12 >= -1;
-1 x11 +1 x1 -1 x13 >= -1;
-1 x11 +1 x3 -1 x14 >= -1;
-1 x11 +1 x5 -1 x15 >= -1;
-1 x11 +1 x7 -1 x16 >= -1;
-1 x44 +1 x55 -1 x17 >= -1;
-1 x44 +1 x77 -1 x18 >= -1;
-1 x44 +1 x1 -1 x19 >= -1;
-1 x44 +1 x3 -1 x20 >= -1;
-1 x44 +1 x5 -1 x21 >= -1;
-1 x44 +1 x7 -1 x23 >= -1;
-1 x55 +1 x77 -1 x24 >= -1;
-1 x55 +1 x1 -1 x25 >= -1;
-1 x55 +1 x3 -1 x26 >= -1;
-1 x55 +1 x5 -1 x27 >= -1;
-1 x55 +1 x7 -1 x28 >= -1;
-1 x77 +1 x1 -1 x29 >= -1;
-1 x77 +1 x3 -1 x30 >= -1;
-1 x77 +1 x5 -1 x31 >= -1;
-1 x77 +1 x7 -1 x32 >= -1;
-1 x1 +1 x3 -1 x34 >= -1;
-1 x1 +1 x5 -1 x35 >= -1;
-1 x1 +1 x7 -1 x36 >= -1;
-1 x3 +1 x5 -1 x37 >= -1;
-1 x3 +1 x7 -1 x38 >= -1;
-1 x5 +1 x7 -1 x39 >= -1;
-1 x22 -1 x9 +1 x90 >= -1;
-1 x22 +1 x66 -1 x10 >= -1;
-1 x22 +1 x88 -1 x12 >= -1;
-1 x22 +1 x2 -1 x13 >= -1;
-1 x22 +1 x4 -1 x14 >= -1;
-1 x22 +1 x6 -1 x15 >= -1;
-1 x22 +1 x8 -1 x16 >= -1;
+1 x66 -1 x17 -1 x90 >= -1;
+1 x88 -1 x18 -1 x90 >= -1;
+1 x2 -1 x19 -1 x90 >= -1;
+1 x4 -1 x20 -1 x90 >= -1;
+1 x6 -1 x21 -1 x90 >= -1;
+1 x8 -1 x23 -1 x90 >= -1;
-1 x66 +1 x88 -1 x24 >= -1;
-1 x66 +1 x2 -1 x25 >= -1;
-1 x66 +1 x4 -1 x26 >= -1;
-1 x66 +1 x6 -1 x27 >= -1;
-1 x66 +1 x8 -1 x28 >= -1;
-1 x88 +1 x2 -1 x29 >= -1;
-1 x88 +1 x4 -1 x30 >= -1;
-1 x88 +1 x6 -1 x31 >= -1;
-1 x88 +1 x8 -1 x32 >= -1;
-1 x2 +1 x4 -1 x34 >= -1;
-1 x2 +1 x6 -1 x35 >= -1;
-1 x2 +1 x8 -1 x36 >= -1;
-1 x4 +1 x6 -1 x37 >= -1;
-1 x4 +1 x8 -1 x38 >= -1;
-1 x6 +1 x8 -1 x39 >= -1;
-1 x9 +1 x10 -1 x17 >= -1;
-1 x9 +1 x12 -1 x18 >= -1;
-1 x9 +1 x13 -1 x19 >= -1;
-1 x9 +1 x14 -1 x20 >= -1;
-1 x9 +1 x15 -1 x21 >= -1;
-1 x9 +1 x16 -1 x23 >= -1;
-1 x10 +1 x12 -1 x24 >= -1;
-1 x10 +1 x13 -1 x25 >= -1;
-1 x10 +1 x14 -1 x26 >= -1;
-1 x10 +1 x15 -1 x27 >= -1;
-1 x10 +1 x16 -1 x28 >= -1;
-1 x12 +1 x13 -1 x29 >= -1;
-1 x12 +1 x14 -1 x30 >= -1;
-1 x12 +1 x15 -1 x31 >= -1;
-1 x12 +1 x16 -1 x32 >= -1;
-1 x13 +1 x14 -1 x34 >= -1;
-1 x13 +1 x15 -1 x35 >= -1;
-1 x13 +1 x16 -1 x36 >= -1;
-1 x14 +1 x15 -1 x37 >= -1;
-1 x14 +1 x16 -1 x38 >= -1;
-1 x15 +1 x16 -1 x39 >= -1;
-1 x17 +1 x18 -1 x24 >= -1;
-1 x17 +1 x19 -1 x25 >= -1;
-1 x17 +1 x20 -1 x26 >= -1;
-1 x17 +1 x21 -1 x27 >= -1;
-1 x17 +1 x23 -1 x28 >= -1;
-1 x18 +1 x19 -1 x29 >= -1;
-1 x18 +1 x20 -1 x30 >= -1;
-1 x18 +1 x21 -1 x31 >= -1;
-1 x18 +1 x23 -1 x32 >= -1;
-1 x19 +1 x20 -1 x34 >= -1;
-1 x19 +1 x21 -1 x35 >= -1;
-1 x19 +1 x23 -1 x36 >= -1;
-1 x20 +1 x21 -1 x37 >= -1;
-1 x20 +1 x23 -1 x38 >= -1;
-1 x21 +1 x23 -1 x39 >= -1;
-1 x24 +1 x25 -1 x29 >= -1;
-1 x24 +1 x26 -1 x30 >= -1;
-1 x24 +1 x27 -1 x31 >= -1;
-1 x24 +1 x28 -1 x32 >= -1;
-1 x25 +1 x26 -1 x34 >= -1;
-1 x25 +1 x27 -1 x35 >= -1;
-1 x25 +1 x28 -1 x36 >= -1;
-1 x26 +1 x27 -1 x37 >= -1;
-1 x26 +1 x28 -1 x38 >= -1;
-1 x27 +1 x28 -1 x39 >= -1;
-1 x29 +1 x30 -1 x34 >= -1;
-1 x29 +1 x31 -1 x35 >= -1;
-1 x29 +1 x32 -1 x36 >= -1;
-1 x30 +1 x31 -1 x37 >= -1;
-1 x30 +1 x32 -1 x38 >= -1;
-1 x31 +1 x32 -1 x39 >= -1;
-1 x34 +1 x35 -1 x37 >= -1;
-1 x34 +1 x36 -1 x38 >= -1;
-1 x35 +1 x36 -1 x39 >= -1;
-1 x37 +1 x38 -1 x39 >= -1;
-1 x11 +1 x22 +1 x33 >= 0;
+1 x33 -1 x44 +1 x90 >= 0;
+1 x33 -1 x55 +1 x66 >= 0;
+1 x33 -1 x77 +1 x88 >= 0;
+1 x33 -1 x1 +1 x2 >= 0;
+1 x33 -1 x3 +1 x4 >= 0;
+1 x33 -1 x5 +1 x6 >= 0;
+1 x33 -1 x7 +1 x8 >= 0;
+1 x11 -1 x44 +1 x9 >= 0;
+1 x11 -1 x55 +1 x10 >= 0;
+1 x11 -1 x77 +1 x12 >= 0;
+1 x11 -1 x1 +1 x13 >= 0;
+1 x11 -1 x3 +1 x14 >= 0;
+1 x11 -1 x5 +1 x15 >= 0;
+1 x11 -1 x7 +1 x16 >= 0;
+1 x44 -1 x55 +1 x17 >= 0;
+1 x44 -1 x77 +1 x18 >= 0;
+1 x44 -1 x1 +1 x19 >= 0;
+1 x44 -1 x3 +1 x20 >= 0;
+1 x44 -1 x5 +1 x21 >= 0;
+1 x44 -1 x7 +1 x23 >= 0;
+1 x55 -1 x77 +1 x24 >= 0;
+1 x55 -1 x1 +1 x25 >= 0;
+1 x55 -1 x3 +1 x26 >= 0;
+1 x55 -1 x5 +1 x27 >= 0;
+1 x55 -1 x7 +1 x28 >= 0;
+1 x77 -1 x1 +1 x29 >= 0;
+1 x77 -1 x3 +1 x30 >= 0;
+1 x77 -1 x5 +1 x31 >= 0;
+1 x77 -1 x7 +1 x32 >= 0;
+1 x1 -1 x3 +1 x34 >= 0;
+1 x1 -1 x5 +1 x35 >= 0;
+1 x1 -1 x7 +1 x36 >= 0;
+1 x3 -1 x5 +1 x37 >= 0;
+1 x3 -1 x7 +1 x38 >= 0;
+1 x5 -1 x7 +1 x39 >= 0;
+1 x22 +1 x9 -1 x90 >= 0;
+1 x22 -1 x66 +1 x10 >= 0;
+1 x22 -1 x88 +1 x12 >= 0;
+1 x22 -1 x2 +1 x13 >= 0;
+1 x22 -1 x4 +1 x14 >= 0;
+1 x22 -1 x6 +1 x15 >= 0;
+1 x22 -1 x8 +1 x16 >= 0;
-1 x66 +1 x17 +1 x90 >= 0;
-1 x88 +1 x18 +1 x90 >= 0;
-1 x2 +1 x19 +1 x90 >= 0;
-1 x4 +1 x20 +1 x90 >= 0;
-1 x6 +1 x21 +1 x90 >= 0;
-1 x8 +1 x23 +1 x90 >= 0;
+1 x66 -1 x88 +1 x24 >= 0;
+1 x66 -1 x2 +1 x25 >= 0;
+1 x66 -1 x4 +1 x26 >= 0;
+1 x66 -1 x6 +1 x27 >= 0;
+1 x66 -1 x8 +1 x28 >= 0;
+1 x88 -1 x2 +1 x29 >= 0;
+1 x88 -1 x4 +1 x30 >= 0;
+1 x88 -1 x6 +1 x31 >= 0;
+1 x88 -1 x8 +1 x32 >= 0;
+1 x2 -1 x4 +1 x34 >= 0;
+1 x2 -1 x6 +1 x35 >= 0;
+1 x2 -1 x8 +1 x36 >= 0;
+1 x4 -1 x6 +1 x37 >= 0;
+1 x4 -1 x8 +1 x38 >= 0;
+1 x6 -1 x8 +1 x39 >= 0;
+1 x9 -1 x10 +1 x17 >= 0;
+1 x9 -1 x12 +1 x18 >= 0;
+1 x9 -1 x13 +1 x19 >= 0;
+1 x9 -1 x14 +1 x20 >= 0;
+1 x9 -1 x15 +1 x21 >= 0;
+1 x9 -1 x16 +1 x23 >= 0;
+1 x10 -1 x12 +1 x24 >= 0;
+1 x10 -1 x13 +1 x25 >= 0;
+1 x10 -1 x14 +1 x26 >= 0;
+1 x10 -1 x15 +1 x27 >= 0;
+1 x10 -1 x16 +1 x28 >= 0;
+1 x12 -1 x13 +1 x29 >= 0;
+1 x12 -1 x14 +1 x30 >= 0;
+1 x12 -1 x15 +1 x31 >= 0;
+1 x12 -1 x16 +1 x32 >= 0;
+1 x13 -1 x14 +1 x34 >= 0;
+1 x13 -1 x15 +1 x35 >= 0;
+1 x13 -1 x16 +1 x36 >= 0;
+1 x14 -1 x15 +1 x37 >= 0;
+1 x14 -1 x16 +1 x38 >= 0;
+1 x15 -1 x16 +1 x39 >= 0;
+1 x17 -1 x18 +1 x24 >= 0;
+1 x17 -1 x19 +1 x25 >= 0;
+1 x17 -1 x20 +1 x26 >= 0;
+1 x17 -1 x21 +1 x27 >= 0;
+1 x17 -1 x23 +1 x28 >= 0;
+1 x18 -1 x19 +1 x29 >= 0;
+1 x18 -1 x20 +1 x30 >= 0;
+1 x18 -1 x21 +1 x31 >= 0;
+1 x18 -1 x23 +1 x32 >= 0;
+1 x19 -1 x20 +1 x34 >= 0;
+1 x19 -1 x21 +1 x35 >= 0;
+1 x19 -1 x23 +1 x36 >= 0;
+1 x20 -1 x21 +1 x37 >= 0;
+1 x20 -1 x23 +1 x38 >= 0;
+1 x21 -1 x23 +1 x39 >= 0;
+1 x24 -1 x25 +1 x29 >= 0;
+1 x24 -1 x26 +1 x30 >= 0;
+1 x24 -1 x27 +1 x31 >= 0;
+1 x24 -1 x28 +1 x32 >= 0;
+1 x25 -1 x26 +1 x34 >= 0;
+1 x25 -1 x27 +1 x35 >= 0;
+1 x25 -1 x28 +1 x36 >= 0;
+1 x26 -1 x27 +1 x37 >= 0;
+1 x26 -1 x28 +1 x38 >= 0;
+1 x27 -1 x28 +1 x39 >= 0;
+1 x29 -1 x30 +1 x34 >= 0;
+1 x29 -1 x31 +1 x35 >= 0;
+1 x29 -1 x32 +1 x36 >= 0;
+1 x30 -1 x31 +1 x37 >= 0;
+1 x30 -1 x32 +1 x38 >= 0;
+1 x31 -1 x32 +1 x39 >= 0;
+1 x34 -1 x35 +1 x37 >= 0;
+1 x34 -1 x36 +1 x38 >= 0;
+1 x35 -1 x36 +1 x39 >= 0;
+1 x37 -1 x38 +1 x39 >= 0;
+1 x40 -1 x41 -1 x42 >= -1;
-1 x42 +1 x43 -1 x45 >= -1;
-1 x42 +1 x46 -1 x47 >= -1;
-1 x42 +1 x48 -1 x49 >= -1;
-1 x42 +1 x50 -1 x51 >= -1;
-1 x42 +1 x52 -1 x53 >= -1;
-1 x42 +1 x54 -1 x56 >= -1;
-1 x42 +1 x57 -1 x58 >= -1;
-1 x40 +1 x43 -1 x59 >= -1;
-1 x40 +1 x46 -1 x60 >= -1;
-1 x40 +1 x48 -1 x61 >= -1;
-1 x40 +1 x50 -1 x62 >= -1;
-1 x40 +1 x52 -1 x63 >= -1;
-1 x40 +1 x54 -1 x64 >= -1;
-1 x40 +1 x57 -1 x65 >= -1;
-1 x43 +1 x46 -1 x67 >= -1;
-1 x43 +1 x48 -1 x68 >= -1;
-1 x43 +1 x50 -1 x69 >= -1;
-1 x43 +1 x52 -1 x87 >= -1;
-1 x43 +1 x54 -1 x70 >= -1;
-1 x43 +1 x57 -1 x71 >= -1;
-1 x46 +1 x48 -1 x72 >= -1;
-1 x46 +1 x50 -1 x73 >= -1;
-1 x46 +1 x52 -1 x74 >= -1;
-1 x46 +1 x54 -1 x89 >= -1;
-1 x46 +1 x57 -1 x75 >= -1;
-1 x48 +1 x50 -1 x76 >= -1;
-1 x48 +1 x52 -1 x78 >= -1;
-1 x48 +1 x54 -1 x79 >= -1;
-1 x48 +1 x57 -1 x80 >= -1;
-1 x50 +1 x52 -1 x81 >= -1;
-1 x50 +1 x54 -1 x82 >= -1;
-1 x50 +1 x57 -1 x83 >= -1;
-1 x52 +1 x54 -1 x84 >= -1;
-1 x52 +1 x57 -1 x85 >= -1;
-1 x54 +1 x57 -1 x86 >= -1;
-1 x41 +1 x45 -1 x59 >= -1;
-1 x41 +1 x47 -1 x60 >= -1;
-1 x41 +1 x49 -1 x61 >= -1;
-1 x41 +1 x51 -1 x62 >= -1;
-1 x41 +1 x53 -1 x63 >= -1;
-1 x41 +1 x56 -1 x64 >= -1;
-1 x41 +1 x58 -1 x65 >= -1;
-1 x45 +1 x47 -1 x67 >= -1;
-1 x45 +1 x49 -1 x68 >= -1;
-1 x45 +1 x51 -1 x69 >= -1;
-1 x45 +1 x53 -1 x87 >= -1;
-1 x45 +1 x56 -1 x70 >= -1;
-1 x45 +1 x58 -1 x71 >= -1;
-1 x47 +1 x49 -1 x72 >= -1;
-1 x47 +1 x51 -1 x73 >= -1;
-1 x47 +1 x53 -1 x74 >= -1;
-1 x47 +1 x56 -1 x89 >= -1;
-1 x47 +1 x58 -1 x75 >= -1;
-1 x49 +1 x51 -1 x76 >= -1;
-1 x49 +1 x53 -1 x78 >= -1;
-1 x49 +1 x56 -1 x79 >= -1;
-1 x49 +1 x58 -1 x80 >= -1;
-1 x51 +1 x53 -1 x81 >= -1;
-1 x51 +1 x56 -1 x82 >= -1;
-1 x51 +1 x58 -1 x83 >= -1;
-1 x53 +1 x56 -1 x84 >= -1;
-1 x53 +1 x58 -1 x85 >= -1;
-1 x56 +1 x58 -1 x86 >= -1;
-1 x59 +1 x60 -1 x67 >= -1;
-1 x59 +1 x61 -1 x68 >= -1;
-1 x59 +1 x62 -1 x69 >= -1;
-1 x59 +1 x63 -1 x87 >= -1;
-1 x59 +1 x64 -1 x70 >= -1;
-1 x59 +1 x65 -1 x71 >= -1;
-1 x60 +1 x61 -1 x72 >= -1;
-1 x60 +1 x62 -1 x73 >= -1;
-1 x60 +1 x63 -1 x74 >= -1;
-1 x60 +1 x64 -1 x89 >= -1;
-1 x60 +1 x65 -1 x75 >= -1;
-1 x61 +1 x62 -1 x76 >= -1;
-1 x61 +1 x63 -1 x78 >= -1;
-1 x61 +1 x64 -1 x79 >= -1;
-1 x61 +1 x65 -1 x80 >= -1;
-1 x62 +1 x63 -1 x81 >= -1;
-1 x62 +1 x64 -1 x82 >= -1;
-1 x62 +1 x65 -1 x83 >= -1;
-1 x63 +1 x64 -1 x84 >= -1;
-1 x63 +1 x65 -1 x85 >= -1;
-1 x64 +1 x65 -1 x86 >= -1;
-1 x67 +1 x68 -1 x72 >= -1;
-1 x67 +1 x69 -1 x73 >= -1;
-1 x67 -1 x74 +1 x87 >= -1;
-1 x67 +1 x70 -1 x89 >= -1;
-1 x67 +1 x71 -1 x75 >= -1;
-1 x68 +1 x69 -1 x76 >= -1;
-1 x68 -1 x78 +1 x87 >= -1;
-1 x68 +1 x70 -1 x79 >= -1;
-1 x68 +1 x71 -1 x80 >= -1;
-1 x69 -1 x81 +1 x87 >= -1;
-1 x69 +1 x70 -1 x82 >= -1;
-1 x69 +1 x71 -1 x83 >= -1;
+1 x70 -1 x84 -1 x87 >= -1;
+1 x71 -1 x85 -1 x87 >= -1;
-1 x70 +1 x71 -1 x86 >= -1;
-1 x72 +1 x73 -1 x76 >= -1;
-1 x72 +1 x74 -1 x78 >= -1;
-1 x72 -1 x79 +1 x89 >= -1;
-1 x72 +1 x75 -1 x80 >= -1;
-1 x73 +1 x74 -1 x81 >= -1;
-1 x73 -1 x82 +1 x89 >= -1;
-1 x73 +1 x75 -1 x83 >= -1;
-1 x74 -1 x84 +1 x89 >= -1;
-1 x74 +1 x75 -1 x85 >= -1;
+1 x75 -1 x86 -1 x89 >= -1;
-1 x76 +1 x78 -1 x81 >= -1;
-1 x76 +1 x79 -1 x82 >= -1;
-1 x76 +1 x80 -1 x83 >= -1;
-1 x78 +1 x79 -1 x84 >= -1;
-1 x78 +1 x80 -1 x85 >= -1;
-1 x79 +1 x80 -1 x86 >= -1;
-1 x81 +1 x82 -1 x84 >= -1;
-1 x81 +1 x83 -1 x85 >= -1;
-1 x82 +1 x83 -1 x86 >= -1;
-1 x84 +1 x85 -1 x86 >= -1;
-1 x40 +1 x41 +1 x42 >= 0;
+1 x42 -1 x43 +1 x45 >= 0;
+1 x42 -1 x46 +1 x47 >= 0;
+1 x42 -1 x48 +1 x49 >= 0;
+1 x42 -1 x50 +1 x51 >= 0;
+1 x42 -1 x52 +1 x53 >= 0;
+1 x42 -1 x54 +1 x56 >= 0;
+1 x42 -1 x57 +1 x58 >= 0;
+1 x40 -1 x43 +1 x59 >= 0;
+1 x40 -1 x46 +1 x60 >= 0;
+1 x40 -1 x48 +1 x61 >= 0;
+1 x40 -1 x50 +1 x62 >= 0;
+1 x40 -1 x52 +1 x63 >= 0;
+1 x40 -1 x54 +1 x64 >= 0;
+1 x40 -1 x57 +1 x65 >= 0;
+1 x43 -1 x46 +1 x67 >= 0;
+1 x43 -1 x48 +1 x68 >= 0;
+1 x43 -1 x50 +1 x69 >= 0;
+1 x43 -1 x52 +1 x87 >= 0;
+1 x43 -1 x54 +1 x70 >= 0;
+1 x43 -1 x57 +1 x71 >= 0;
+1 x46 -1 x48 +1 x72 >= 0;
+1 x46 -1 x50 +1 x73 >= 0;
+1 x46 -1 x52 +1 x74 >= 0;
+1 x46 -1 x54 +1 x89 >= 0;
+1 x46 -1 x57 +1 x75 >= 0;
+1 x48 -1 x50 +1 x76 >= 0;
+1 x48 -1 x52 +1 x78 >= 0;
+1 x48 -1 x54 +1 x79 >= 0;
+1 x48 -1 x57 +1 x80 >= 0;
+1 x50 -1 x52 +1 x81 >= 0;
+1 x50 -1 x54 +1 x82 >= 0;
+1 x50 -1 x57 +1 x83 >= 0;
+1 x52 -1 x54 +1 x84 >= 0;
+1 x52 -1 x57 +1 x85 >= 0;
+1 x54 -1 x57 +1 x86 >= 0;
+1 x41 -1 x45 +1 x59 >= 0;
+1 x41 -1 x47 +1 x60 >= 0;
+1 x41 -1 x49 +1 x61 >= 0;
+1 x41 -1 x51 +1 x62 >= 0;
+1 x41 -1 x53 +1 x63 >= 0;
+1 x41 -1 x56 +1 x64 >= 0;
+1 x41 -1 x58 +1 x65 >= 0;
+1 x45 -1 x47 +1 x67 >= 0;
+1 x45 -1 x49 +1 x68 >= 0;
+1 x45 -1 x51 +1 x69 >= 0;
+1 x45 -1 x53 +1 x87 >= 0;
+1 x45 -1 x56 +1 x70 >= 0;
+1 x45 -1 x58 +1 x71 >= 0;
+1 x47 -1 x49 +1 x72 >= 0;
+1 x47 -1 x51 +1 x73 >= 0;
+1 x47 -1 x53 +1 x74 >= 0;
+1 x47 -1 x56 +1 x89 >= 0;
+1 x47 -1 x58 +1 x75 >= 0;
+1 x49 -1 x51 +1 x76 >= 0;
+1 x49 -1 x53 +1 x78 >= 0;
+1 x49 -1 x56 +1 x79 >= 0;
+1 x49 -1 x58 +1 x80 >= 0;
+1 x51 -1 x53 +1 x81 >= 0;
+1 x51 -1 x56 +1 x82 >= 0;
+1 x51 -1 x58 +1 x83 >= 0;
+1 x53 -1 x56 +1 x84 >= 0;
+1 x53 -1 x58 +1 x85 >= 0;
+1 x56 -1 x58 +1 x86 >= 0;
+1 x59 -1 x60 +1 x67 >= 0;
+1 x59 -1 x61 +1 x68 >= 0;
+1 x59 -1 x62 +1 x69 >= 0;
+1 x59 -1 x63 +1 x87 >= 0;
+1 x59 -1 x64 +1 x70 >= 0;
+1 x59 -1 x65 +1 x71 >= 0;
+1 x60 -1 x61 +1 x72 >= 0;
+1 x60 -1 x62 +1 x73 >= 0;
+1 x60 -1 x63 +1 x74 >= 0;
+1 x60 -1 x64 +1 x89 >= 0;
+1 x60 -1 x65 +1 x75 >= 0;
+1 x61 -1 x62 +1 x76 >= 0;
+1 x61 -1 x63 +1 x78 >= 0;
+1 x61 -1 x64 +1 x79 >= 0;
+1 x61 -1 x65 +1 x80 >= 0;
+1 x62 -1 x63 +1 x81 >= 0;
+1 x62 -1 x64 +1 x82 >= 0;
+1 x62 -1 x65 +1 x83 >= 0;
+1 x63 -1 x64 +1 x84 >= 0;
+1 x63 -1 x65 +1 x85 >= 0;
+1 x64 -1 x65 +1 x86 >= 0;
+1 x67 -1 x68 +1 x72 >= 0;
+1 x67 -1 x69 +1 x73 >= 0;
+1 x67 +1 x74 -1 x87 >= 0;
+1 x67 -1 x70 +1 x89 >= 0;
+1 x67 -1 x71 +1 x75 >= 0;
+1 x68 -1 x69 +1 x76 >= 0;
+1 x68 +1 x78 -1 x87 >= 0;
+1 x68 -1 x70 +1 x79 >= 0;
+1 x68 -1 x71 +1 x80 >= 0;
+1 x69 +1 x81 -1 x87 >= 0;
+1 x69 -1 x70 +1 x82 >= 0;
+1 x69 -1 x71 +1 x83 >= 0;
-1 x70 +1 x84 +1 x87 >= 0;
-1 x71 +1 x85 +1 x87 >= 0;
+1 x70 -1 x71 +1 x86 >= 0;
+1 x72 -1 x73 +1 x76 >= 0;
+1 x72 -1 x74 +1 x78 >= 0;
+1 x72 +1 x79 -1 x89 >= 0;
+1 x72 -1 x75 +1 x80 >= 0;
+1 x73 -1 x74 +1 x81 >= 0;
+1 x73 +1 x82 -1 x89 >= 0;
+1 x73 -1 x75 +1 x83 >= 0;
+1 x74 +1 x84 -1 x89 >= 0;
+1 x74 -1 x75 +1 x85 >= 0;
-1 x75 +1 x86 +1 x89 >= 0;
+1 x76 -1 x78 +1 x81 >= 0;
+1 x76 -1 x79 +1 x82 >= 0;
+1 x76 -1 x80 +1 x83 >= 0;
+1 x78 -1 x79 +1 x84 >= 0;
+1 x78 -1 x80 +1 x85 >= 0;
+1 x79 -1 x80 +1 x86 >= 0;
+1 x81 -1 x82 +1 x84 >= 0;
+1 x81 -1 x83 +1 x85 >= 0;
+1 x82 -1 x83 +1 x86 >= 0;
+1 x84 -1 x85 +1 x86 >= 0;
